c description: Random 3-CNF over 10 variables and 30 clauses
p cnf 10 30
5 -6 -10 0
3 7 9 0
3 7 10 0
2 -5 -9 0
4 5 -7 0
-1 2 3 0
-4 -7 -10 0
-1 2 -6 0
2 3 4 0
-2 4 -9 0
-2 -3 7 0
2 6 8 0
1 -5 -9 0
-1 -2 5 0
-3 4 10 0
3 -6 -8 0
2 -3 8 0
1 -4 7 0
-5 7 -9 0
-4 -7 10 0
-5 -7 8 0
1 -4 5 0
1 -4 -5 0
-5 7 10 0
-4 -7 -9 0
-2 -3 -5 0
7 8 10 0
-2 5 -7 0
-6 8 10 0
-2 -7 10 0